p cnf 33 200
1 2 3 0
4 5 6 0
7 8 9 0
10 11 12 0
13 14 15 0
16 17 18 0
19 20 21 0
22 23 24 0
25 26 27 0
28 29 30 0
31 32 33 0
-1 -4 0
-2 -5 0
-3 -6 0
-7 -4 0
-8 -5 0
-9 -6 0
-1 -10 0
-2 -11 0
-3 -12 0
-7 -13 0
-8 -14 0
-9 -15 0
-10 -13 0
-11 -14 0
-12 -15 0
-16 -4 0
-17 -5 0
-18 -6 0
-1 -19 0
-2 -20 0
-3 -21 0
-22 -4 0
-23 -5 0
-24 -6 0
-7 -19 0
-8 -20 0
-9 -21 0
-16 -10 0
-17 -11 0
-18 -12 0
-1 -25 0
-2 -26 0
-3 -27 0
-22 -13 0
-23 -14 0
-24 -15 0
-7 -28 0
-8 -29 0
-9 -30 0
-25 -13 0
-26 -14 0
-27 -15 0
-10 -28 0
-11 -29 0
-12 -30 0
-16 -31 0
-17 -32 0
-18 -33 0
-19 -31 0
-20 -32 0
-21 -33 0
-22 -31 0
-23 -32 0
-24 -33 0
-25 -31 0
-26 -32 0
-27 -33 0
-28 -31 0
-29 -32 0
-30 -33 0
-1 -2 0
-1 -3 0
-2 -3 0
-4 -5 0
-4 -6 0
-5 -6 0
-7 -8 0
-7 -9 0
-8 -9 0
-10 -11 0
-10 -12 0
-11 -12 0
-13 -14 0
-13 -15 0
-14 -15 0
-16 -17 0
-16 -18 0
-17 -18 0
-19 -20 0
-19 -21 0
-20 -21 0
-22 -23 0
-22 -24 0
-23 -24 0
-25 -26 0
-25 -27 0
-26 -27 0
-28 -29 0
-28 -30 0
-29 -30 0
-31 -32 0
-31 -33 0
-32 -33 0
-17 -1 31 0
-18 -1 31 0
-16 -2 32 0
-18 -2 32 0
-16 -3 33 0
-17 -3 33 0
-20 -4 31 0
-21 -4 31 0
-19 -5 32 0
-21 -5 32 0
-19 -6 33 0
-20 -6 33 0
-23 -7 31 0
-24 -7 31 0
-22 -8 32 0
-24 -8 32 0
-22 -9 33 0
-23 -9 33 0
-26 -10 31 0
-27 -10 31 0
-25 -11 32 0
-27 -11 32 0
-25 -12 33 0
-26 -12 33 0
-29 -13 31 0
-30 -13 31 0
-28 -14 32 0
-30 -14 32 0
-28 -15 33 0
-29 -15 33 0
-16 -19 -2 0
-16 -19 -3 0
-17 -20 -1 0
-17 -20 -3 0
-18 -21 -1 0
-18 -21 -2 0
-16 -25 -2 0
-16 -25 -3 0
-17 -26 -1 0
-17 -26 -3 0
-18 -27 -1 0
-18 -27 -2 0
-22 -19 -8 0
-22 -19 -9 0
-23 -20 -7 0
-23 -20 -9 0
-24 -21 -7 0
-24 -21 -8 0
-22 -28 -8 0
-22 -28 -9 0
-23 -29 -7 0
-23 -29 -9 0
-24 -30 -7 0
-24 -30 -8 0
-25 -28 -11 0
-25 -28 -12 0
-26 -29 -10 0
-26 -29 -12 0
-27 -30 -10 0
-27 -30 -11 0
-16 -19 0
-17 -20 0
-18 -21 0
-16 -25 0
-17 -26 0
-18 -27 0
-22 -19 0
-23 -20 0
-24 -21 0
-22 -28 0
-23 -29 0
-24 -30 0
-25 -28 0
-26 -29 0
-27 -30 0
-23 -16 28 0
-24 -16 28 0
-22 -17 29 0
-24 -17 29 0
-22 -18 30 0
-23 -18 30 0
-26 -19 28 0
-27 -19 28 0
-25 -20 29 0
-27 -20 29 0
-25 -21 30 0
-26 -21 30 0
-22 -25 -17 0
-22 -25 -18 0
-23 -26 -16 0
-23 -26 -18 0
-24 -27 -16 0
-24 -27 -17 0
-22 -25 0
-23 -26 0
-24 -27 0
